240 5
10 10 10 10 10 

0 0 0 0 0 0 5 2 14 26 38 50 
0 0 0 0 0 0 4 3 4 6 7 
10 0 0 0 0 7 3 11 9 5 
4 0 0 0 0 2 4 11 10 9 8 
6 0 0 0 0 6 3 12 10 8 
10 0 0 0 0 8 2 9 8 
9 0 0 0 0 10 1 8 
5 0 0 0 0 10 1 13 
1 0 0 0 0 9 1 13 
6 0 0 0 0 10 1 13 
8 0 0 0 0 7 1 13 
7 0 0 0 0 6 1 13 
0 0 0 0 0 0 1 62 
0 0 0 0 0 0 5 15 21 22 23 24 
3 1 0 0 0 0 4 20 19 18 16 
5 8 0 0 0 0 1 17 
6 7 0 0 0 0 1 25 
9 10 0 0 0 0 1 25 
5 5 0 0 0 0 1 25 
1 8 0 0 0 0 1 25 
5 10 0 0 0 0 1 25 
5 8 0 0 0 0 1 25 
9 9 0 0 0 0 1 25 
3 9 0 0 0 0 1 25 
0 0 0 0 0 0 1 62 
0 0 0 0 0 0 3 27 29 30 
3 0 0 4 0 0 3 34 31 28 
4 0 0 4 0 0 4 36 35 33 32 
2 0 0 7 0 0 2 34 32 
10 0 0 8 0 0 2 33 32 
2 0 0 8 0 0 1 32 
4 0 0 9 0 0 1 37 
3 0 0 8 0 0 1 37 
5 0 0 7 0 0 1 37 
10 0 0 10 0 0 1 37 
6 0 0 10 0 0 1 37 
0 0 0 0 0 0 1 62 
0 0 0 0 0 0 6 39 40 41 42 46 48 
6 0 0 3 0 0 2 45 43 
3 0 0 10 0 0 1 44 
1 0 0 8 0 0 1 43 
10 0 0 3 0 0 1 43 
4 0 0 10 0 0 1 47 
4 0 0 10 0 0 1 47 
5 0 0 3 0 0 1 47 
3 0 0 10 0 0 1 47 
9 0 0 10 0 0 1 49 
8 0 0 8 0 0 1 49 
0 0 0 0 0 0 1 62 
0 0 0 0 0 0 4 51 52 53 56 
9 0 4 0 0 0 4 60 59 58 54 
4 0 8 0 0 0 4 59 58 55 54 
5 0 9 0 0 0 3 60 59 57 
2 0 10 0 0 0 1 57 
5 0 10 0 0 0 1 57 
2 0 10 0 0 0 1 58 
2 0 7 0 0 0 1 61 
8 0 5 0 0 0 1 61 
4 0 4 0 0 0 1 61 
6 0 8 0 0 0 1 61 
0 0 0 0 0 0 1 62 
0 0 0 0 0 0 4 63 95 127 159 
0 0 0 0 0 0 6 64 65 66 67 68 78 
7 2 0 3 0 4 5 82 80 71 70 69 
1 6 0 8 0 6 5 80 77 76 71 69 
10 6 0 8 0 10 4 82 76 71 69 
5 7 0 9 0 8 4 82 81 70 69 
3 4 0 2 0 8 3 82 81 70 
7 8 0 9 0 9 3 75 73 72 
7 10 0 10 0 10 3 77 76 75 
1 10 0 4 0 7 2 81 74 
1 6 0 9 0 7 2 83 79 
5 7 0 9 0 10 2 83 79 
7 10 0 10 0 6 2 83 79 
7 7 0 9 0 4 1 79 
6 10 0 8 0 9 1 79 
2 9 0 7 0 8 1 79 
6 8 0 5 0 6 1 79 
1 10 0 6 0 10 5 93 92 89 85 84 
6 10 0 8 0 10 3 92 85 84 
9 10 0 10 0 10 2 92 84 
1 4 0 9 0 7 1 83 
10 4 0 8 0 5 4 93 92 91 90 
9 10 0 7 0 6 2 91 86 
3 8 0 10 0 9 2 91 88 
7 7 0 9 0 8 1 87 
2 6 0 10 0 6 1 90 
5 4 0 10 0 6 1 90 
3 10 0 5 0 3 1 91 
1 7 0 6 0 10 1 94 
2 9 0 5 0 8 1 94 
1 10 0 8 0 5 1 94 
9 6 0 4 0 10 1 94 
0 0 0 0 0 0 1 229 
0 0 0 0 0 0 6 96 97 98 99 100 103 
4 1 0 6 3 0 5 113 111 104 102 101 
2 10 0 8 5 0 5 113 111 110 104 101 
5 4 0 6 9 0 4 111 110 104 101 
2 4 0 9 9 0 3 113 102 101 
6 10 0 8 8 0 2 113 102 
10 10 0 9 4 0 4 109 108 107 105 
2 10 0 6 9 0 4 114 110 109 107 
5 10 0 6 4 0 2 109 105 
3 8 0 10 8 0 1 106 
3 9 0 10 10 0 3 115 114 112 
5 7 0 9 9 0 3 115 114 112 
7 10 0 8 10 0 2 115 112 
5 7 0 7 10 0 2 114 112 
6 10 0 10 6 0 1 112 
6 8 0 3 6 0 1 112 
9 7 0 7 10 0 1 112 
2 7 0 5 10 0 5 125 124 119 117 116 
6 6 0 10 8 0 2 119 114 
8 10 0 8 10 0 4 125 124 120 118 
5 8 0 7 3 0 2 124 116 
10 8 0 8 7 0 2 123 120 
9 4 0 5 10 0 1 118 
1 10 0 8 6 0 2 123 122 
1 10 0 7 7 0 2 123 122 
8 4 0 6 5 0 1 121 
7 3 0 7 10 0 1 122 
10 9 0 9 10 0 1 126 
4 9 0 9 4 0 1 126 
7 7 0 8 6 0 1 126 
8 5 0 6 9 0 1 126 
0 0 0 0 0 0 1 229 
0 0 0 0 0 0 6 128 129 130 131 132 135 
6 0 1 4 5 0 5 145 143 136 134 133 
3 0 10 4 7 0 4 143 142 136 133 
4 0 6 9 9 0 3 145 136 133 
3 0 5 9 7 0 3 145 134 133 
9 0 7 9 10 0 2 145 134 
6 0 10 8 10 0 4 141 140 139 137 
8 0 8 10 7 0 5 147 146 142 141 140 
2 0 5 8 10 0 3 147 146 140 
9 0 8 8 4 0 1 138 
10 0 6 6 4 0 3 147 146 144 
4 0 7 6 10 0 3 147 146 144 
2 0 8 7 9 0 2 147 144 
4 0 7 7 7 0 1 144 
6 0 8 9 8 0 1 144 
1 0 8 7 8 0 1 144 
5 0 10 8 10 0 1 144 
7 0 6 4 8 0 5 157 156 153 149 148 
6 0 8 8 7 0 2 153 147 
4 0 5 10 9 0 2 156 148 
4 0 8 10 7 0 4 157 156 155 152 
4 0 9 10 7 0 2 155 151 
4 0 7 6 6 0 1 150 
4 0 6 7 9 0 2 155 154 
7 0 10 7 5 0 1 152 
5 0 10 6 7 0 1 154 
4 0 9 10 10 0 1 155 
10 0 9 4 9 0 1 158 
7 0 10 7 3 0 1 158 
9 0 7 9 4 0 1 158 
5 0 7 8 9 0 1 158 
0 0 0 0 0 0 1 229 
0 0 0 0 0 0 4 160 162 163 169 
5 2 0 0 0 0 4 168 166 165 161 
2 6 0 0 0 0 2 167 164 
5 6 0 0 0 0 2 166 164 
2 10 0 0 0 0 1 165 
3 10 0 0 0 0 1 170 
4 4 0 0 0 0 1 170 
8 10 0 0 0 0 1 170 
2 10 0 0 0 0 1 170 
2 9 0 0 0 0 1 170 
3 8 0 0 0 0 1 170 
0 0 0 0 0 0 2 171 183 
0 0 0 0 0 0 4 172 173 174 181 
2 3 0 0 0 0 4 180 179 178 176 
8 9 0 0 0 0 3 180 179 175 
1 8 0 0 0 0 3 179 178 176 
4 10 0 0 0 0 2 178 177 
8 10 0 0 0 0 1 177 
7 7 0 0 0 0 1 182 
9 7 0 0 0 0 1 182 
9 7 0 0 0 0 1 182 
9 9 0 0 0 0 1 182 
10 5 0 0 0 0 1 182 
0 0 0 0 0 0 2 205 217 
0 0 0 0 0 0 6 184 187 190 191 202 203 
5 1 0 3 0 0 3 201 192 185 
7 7 0 7 0 0 4 200 196 193 186 
5 7 0 9 0 0 3 199 194 189 
3 6 0 6 0 0 2 192 188 
9 8 0 9 0 0 3 196 195 193 
1 10 0 10 0 0 3 198 197 195 
2 9 0 10 0 0 2 195 192 
6 7 0 9 0 0 1 192 
7 7 0 10 0 0 1 194 
5 9 0 9 0 0 1 194 
4 8 0 3 0 0 1 204 
8 9 0 10 0 0 1 204 
6 10 0 5 0 0 1 204 
6 6 0 8 0 0 1 204 
3 7 0 5 0 0 1 204 
2 7 0 7 0 0 1 204 
5 4 0 4 0 0 1 204 
6 10 0 7 0 0 1 204 
7 8 0 9 0 0 1 204 
9 10 0 10 0 0 1 204 
0 0 0 0 0 0 1 229 
0 0 0 0 0 0 3 206 207 208 
1 1 0 0 0 0 4 215 213 210 209 
5 9 0 0 0 0 4 214 213 212 211 
6 10 0 0 0 0 3 213 212 211 
6 10 0 0 0 0 2 212 211 
1 6 0 0 0 0 1 211 
9 9 0 0 0 0 1 216 
10 10 0 0 0 0 1 216 
7 5 0 0 0 0 1 216 
1 6 0 0 0 0 1 216 
8 9 0 0 0 0 1 216 
0 0 0 0 0 0 1 229 
0 0 0 0 0 0 7 218 219 221 222 225 226 227 
8 0 0 0 0 3 2 224 220 
5 0 0 0 0 7 1 220 
5 0 0 0 0 8 1 223 
3 0 0 0 0 10 1 224 
5 0 0 0 0 10 1 223 
6 0 0 0 0 8 1 228 
4 0 0 0 0 8 1 228 
2 0 0 0 0 8 1 228 
8 0 0 0 0 7 1 228 
4 0 0 0 0 6 1 228 
0 0 0 0 0 0 1 229 
0 0 0 0 0 0 5 230 232 233 234 236 
4 0 0 0 5 0 2 235 231 
2 0 0 0 6 0 3 239 238 237 
7 0 0 0 9 0 3 239 238 237 
6 0 0 0 6 0 2 238 235 
4 0 0 0 10 0 1 235 
6 0 0 0 8 0 1 237 
1 0 0 0 10 0 1 237 
6 0 0 0 6 0 1 240 
3 0 0 0 8 0 1 240 
7 0 0 0 7 0 1 240 
0 0 0 0 0 0 0 
